RT is False
Default write of storage_offers_DA.csv just to have a file (but constraint should be inactive)
Reading model...
...model read.
creating competitive generators file...
...competitive generators recorded.
Loading data...
.. day-ahead data read.
Compiling instance...
...instance created.
Creating Offer Mitigation (model will solve as dispatch if TRUE)...
NOTE: storage offers will not be mitigated
...storage offer mitigation file created
Converting model to MPEC...
...converted
NOTE: initial MIP solve with only storage competitive to get feasible solution
Solving...

Welcome to IBM(R) ILOG(R) CPLEX(R) Interactive Optimizer 12.9.0.0
  with Simplex, Mixed Integer & Barrier Optimizers
5725-A06 5725-A29 5724-Y48 5724-Y49 5724-Y54 5724-Y55 5655-Y21
Copyright IBM Corp. 1988, 2019.  All Rights Reserved.

Type 'help' for a list of available commands.
Type 'help' followed by a command name for more
information on commands.

CPLEX> Logfile 'cplex.log' closed.
Logfile 'C:\Users\llavin\Desktop\test85\logs\tmp4wkze8q_.cplex.log' open.
CPLEX> New value for parallel optimization mode: -1
CPLEX> New value for mixed integer optimality gap tolerance: 0.001
CPLEX> New value for deterministic time limit in ticks: 100000
CPLEX> Problem 'C:\Users\llavin\Desktop\test85\logs\tmp1wvkjn4z.pyomo.lp' read.
Read time = 0.23 sec. (14.72 ticks)
CPLEX> Problem name         : C:\Users\llavin\Desktop\test85\logs\tmp1wvkjn4z.pyomo.lp
Objective sense      : Maximize
Variables            :   53803  [Nneg: 1,  Box: 21998,  Free: 4464,
                                 Binary: 27340]
Objective nonzeros   :    9045
Linear constraints   :  123205  [Less: 41346,  Greater: 59096,  Equal: 22763]
  Nonzeros           :  289298
  RHS nonzeros       :   67482

Variables            : Min LB: -5000.000        Max UB: 1000000.       
Objective nonzeros   : Min   : 0.1000000        Max   : 2500.000       
Linear constraints   :
  Nonzeros           : Min   : 0.1000000        Max   : 1000000.       
  RHS nonzeros       : Min   : 0.1000000        Max   : 1000000.       
CPLEX> CPXPARAM_Parallel                                -1
CPXPARAM_DetTimeLimit                            100000
CPXPARAM_MIP_Tolerances_MIPGap                   0.001
Tried aggregator 3 times.
MIP Presolve eliminated 88717 rows and 19033 columns.
MIP Presolve added 3386 rows and 0 columns.
MIP Presolve modified 24842 coefficients.
Aggregator did 12982 substitutions.
Reduced MIP has 24892 rows, 21226 columns, and 68516 nonzeros.
Reduced MIP has 8389 binaries, 0 generals, 0 SOSs, and 0 indicators.
Presolve time = 0.28 sec. (167.22 ticks)
Probing fixed 368 vars, tightened 4041 bounds.
Probing time = 0.06 sec. (17.50 ticks)
Tried aggregator 2 times.
MIP Presolve eliminated 832 rows and 736 columns.
MIP Presolve modified 3148 coefficients.
Aggregator did 32 substitutions.
Reduced MIP has 24028 rows, 20458 columns, and 66020 nonzeros.
Reduced MIP has 8021 binaries, 0 generals, 0 SOSs, and 0 indicators.
Presolve time = 0.11 sec. (90.26 ticks)
Probing fixed 0 vars, tightened 337 bounds.
Probing time = 0.14 sec. (21.69 ticks)
Clique table members: 44063.
MIP emphasis: balance optimality and feasibility.
MIP search method: dynamic search.
Parallel mode: opportunistic, using up to 32 threads.
Root relaxation solution time = 0.38 sec. (565.72 ticks)

        Nodes                                         Cuts/
   Node  Left     Objective  IInf  Best Integer    Best Bound    ItCnt     Gap

      0     0     2935.2671    75                   2935.2671     4834         
      0     0     2935.2579    11                    Cuts: 22     4853         
      0     0     2934.2931    11                     Cuts: 3     4856         
      0     0     2934.2931    11                     Cuts: 2     4858         
      0     0     2934.2931     7                 Flowcuts: 1     4859         
      0     0     2776.5468    16                     Cuts: 7     4884         
      0     0     2482.1205    14                    Cuts: 23     4916         
*     0+    0                         1726.9773     2480.8854            43.65%
      0     0     2482.1205    15     1726.9773      Cuts: 16     4924   43.65%
*     0+    0                         1726.9773     2480.8854            43.65%
      0     4    infeasible           1726.9773     2289.6888     4965   32.58%
Elapsed time = 4.84 sec. (2588.32 ticks, tree = 0.02 MB, solutions = 2)
     31     7     2152.9550     7     1726.9773     2260.6833     4984   30.90%

Cover cuts applied:  5
Implied bound cuts applied:  4
Flow cuts applied:  17
Mixed integer rounding cuts applied:  10
Gomory fractional cuts applied:  4

Root node processing (before b&c):
  Real time             =    3.81 sec. (2582.68 ticks)
Parallel b&c, 32 threads:
  Real time             =    1.67 sec. (262.76 ticks)
  Sync time (average)   =    0.98 sec.
  Wait time (average)   =    0.00 sec.
                          ------------
Total (root+branch&cut) =    5.48 sec. (2845.44 ticks)

Solution pool: 2 solutions saved.

MIP - Integer optimal, tolerance (0.001/1e-06):  Objective =  1.7269772972e+03
Current MIP best bound =  1.7270486275e+03 (gap = 0.0713303, 0.00%)
Solution time =    5.48 sec.  Iterations = 5075  Nodes = 33 (1)
Deterministic time = 2845.60 ticks  (518.89 ticks/sec)

CPLEX> Incumbent solution written to file 'C:\Users\llavin\Desktop\test85\logs\tmp8gv4olq8.cplex.sol'.
CPLEX> NOTE: no warmstart specified for MIP iteration, default behavior is true
NOTE: resolving with all competitive generators using storage-only solution to warmstart
Solving...

Welcome to IBM(R) ILOG(R) CPLEX(R) Interactive Optimizer 12.9.0.0
  with Simplex, Mixed Integer & Barrier Optimizers
5725-A06 5725-A29 5724-Y48 5724-Y49 5724-Y54 5724-Y55 5655-Y21
Copyright IBM Corp. 1988, 2019.  All Rights Reserved.

Type 'help' for a list of available commands.
Type 'help' followed by a command name for more
information on commands.

CPLEX> Logfile 'cplex.log' closed.
Logfile 'C:\Users\llavin\Desktop\test85\logs\tmpl8gqoydh.cplex.log' open.
CPLEX> New value for parallel optimization mode: -1
CPLEX> New value for mixed integer optimality gap tolerance: 0.001
CPLEX> New value for deterministic time limit in ticks: 100000
CPLEX> Problem 'C:\Users\llavin\Desktop\test85\logs\tmpzje29lan.pyomo.lp' read.
Read time = 0.22 sec. (14.75 ticks)
CPLEX> MIP start file 'C:\Users\llavin\Desktop\test85\logs\tmp5742jenp.cplex.mst' read.
CPLEX> Problem name         : C:\Users\llavin\Desktop\test85\logs\tmpzje29lan.pyomo.lp
Objective sense      : Maximize
Variables            :   54523  [Nneg: 1,  Box: 22718,  Free: 4464,
                                 Binary: 27340]
Objective nonzeros   :    9741
Linear constraints   :  123205  [Less: 41346,  Greater: 59096,  Equal: 22763]
  Nonzeros           :  289298
  RHS nonzeros       :   67482

Variables            : Min LB: -5000.000        Max UB: 1000000.       
Objective nonzeros   : Min   : 0.1000000        Max   : 2500.000       
Linear constraints   :
  Nonzeros           : Min   : 0.1000000        Max   : 1000000.       
  RHS nonzeros       : Min   : 0.1000000        Max   : 1000000.       
CPLEX> CPXPARAM_Parallel                                -1
CPXPARAM_DetTimeLimit                            100000
CPXPARAM_MIP_Tolerances_MIPGap                   0.001
1 of 1 MIP starts provided solutions.
MIP start 'm1' defined initial solution with objective 1726.9773.
Tried aggregator 3 times.
MIP Presolve eliminated 88717 rows and 19753 columns.
MIP Presolve added 3386 rows and 0 columns.
MIP Presolve modified 24842 coefficients.
Aggregator did 12982 substitutions.
Reduced MIP has 24892 rows, 21226 columns, and 68516 nonzeros.
Reduced MIP has 8389 binaries, 0 generals, 0 SOSs, and 0 indicators.
Presolve time = 0.27 sec. (167.57 ticks)
Probing fixed 368 vars, tightened 4041 bounds.
Probing time = 0.06 sec. (17.50 ticks)
Tried aggregator 2 times.
MIP Presolve eliminated 832 rows and 736 columns.
MIP Presolve modified 3148 coefficients.
Aggregator did 32 substitutions.
Reduced MIP has 24028 rows, 20458 columns, and 66020 nonzeros.
Reduced MIP has 8021 binaries, 0 generals, 0 SOSs, and 0 indicators.
Presolve time = 0.11 sec. (90.26 ticks)
Probing fixed 0 vars, tightened 337 bounds.
Probing time = 0.13 sec. (21.69 ticks)
Clique table members: 44063.
MIP emphasis: balance optimality and feasibility.
MIP search method: dynamic search.
Parallel mode: opportunistic, using up to 32 threads.
Root relaxation solution time = 0.41 sec. (608.44 ticks)

        Nodes                                         Cuts/
   Node  Left     Objective  IInf  Best Integer    Best Bound    ItCnt     Gap

*     0+    0                         1726.9773   7.15575e+07              --- 
      0     0   119646.8222   209     1726.9773   119646.8222     5666     --- 
*     0+    0                         1726.9775   119646.8222              --- 
      0     0   116663.6999   187     1726.9775     Cuts: 297     5903     --- 
      0     0   115750.1243   209     1726.9775     Cuts: 214     6081     --- 
      0     0   115042.3035   208     1726.9775     Cuts: 132     6153     --- 
      0     0   114341.2032   210     1726.9775      Cuts: 79     6188     --- 
      0     0   114185.5890   212     1726.9775      Cuts: 69     6216     --- 
      0     0   113993.2534   209     1726.9775      Cuts: 29     6233     --- 
      0     0   113991.0597   208     1726.9775   Flowcuts: 3     6236     --- 
      0    12    infeasible           1726.9775  Impl Bds: 37     6412     --- 
Elapsed time = 5.33 sec. (3078.21 ticks, tree = 0.02 MB, solutions = 2)
    436    53    64356.2652    57     1726.9775    99781.3488     9256     --- 
    915   523    33250.8100    29     1726.9775    99781.3488    20752     --- 
   1333   764    31175.4460    38     1726.9775    99781.3488    26052     --- 
   2043  1003     4457.8165     8     1726.9775    99781.3488    30914     --- 
   2691  1312    24895.9749    33     1726.9775    88054.0996    37528     --- 
   3355  1728    34798.1466    45     1726.9775    65450.9152    47790     --- 
   4062  1992     7862.6686    64     1726.9775    64513.7003    55289     --- 
   4767  2604     5337.9919    16     1726.9775    51815.1738    68720     --- 
   5414  3156    11557.7119    44     1726.9775    50506.0360    80173     --- 
   8028  4420    18769.0886    39     1726.9775    41780.0495   113301     --- 
Elapsed time = 22.78 sec. (6181.36 ticks, tree = 31.66 MB, solutions = 2)
   8759  5537        cutoff           1726.9775    39505.7069   144941     --- 
   9774    50        cutoff           1726.9775    20351.3949   148673     --- 
  11508   247        cutoff           1726.9775    14900.5443   154253  762.81%
  12393   937        cutoff           1726.9775    13600.3275   170500  687.52%
  14617   955     3222.7966     6     1726.9775    10215.6706   171954  491.53%
  18635  1493        cutoff           1726.9775     5487.6601   211089  217.76%
  22722  1506        cutoff           1726.9775     2163.3469   219974   25.27%
  25633  1592    infeasible           1726.9775     2133.2081   218458   23.52%
  26377   882     2167.8426    12     1726.9775     2133.2081   240399   23.52%

GUB cover cuts applied:  2
Cover cuts applied:  3
Implied bound cuts applied:  31
Flow cuts applied:  89
Mixed integer rounding cuts applied:  12
Gomory fractional cuts applied:  4

Root node processing (before b&c):
  Real time             =    4.13 sec. (3069.95 ticks)
Parallel b&c, 32 threads:
  Real time             =   57.23 sec. (15889.49 ticks)
  Sync time (average)   =    3.66 sec.
  Wait time (average)   =    0.20 sec.
                          ------------
Total (root+branch&cut) =   61.36 sec. (18959.44 ticks)

Solution pool: 2 solutions saved.

MIP - Integer optimal, tolerance (0.001/1e-06):  Objective =  1.7269774849e+03
Current MIP best bound =  1.7270492107e+03 (gap = 0.0717258, 0.00%)
Solution time =   61.38 sec.  Iterations = 251365  Nodes = 26501 (3)
Deterministic time = 18959.59 ticks  (308.91 ticks/sec)

CPLEX> Incumbent solution written to file 'C:\Users\llavin\Desktop\test85\logs\tmpe_i3163l.cplex.sol'.
CPLEX> Exporting results... 
